; Benchmark for LTL-sketching problem
(set-logic QF_UF)
(set-info :status unknown)
(declare-fun z_0_0 () Bool)
(declare-fun z_0_1 () Bool)
(declare-fun z_0_4 () Bool)
(declare-fun z_0_6 () Bool)
(declare-fun z_0_12 () Bool)
(declare-fun z_0_18 () Bool)
(declare-fun z_0_21 () Bool)
(declare-fun z_0_27 () Bool)
(declare-fun z_0_29 () Bool)
(declare-fun z_0_31 () Bool)
(declare-fun z_0_35 () Bool)
(declare-fun z_1_0 () Bool)
(declare-fun z_0_2 () Bool)
(declare-fun z_1_1 () Bool)
(declare-fun z_0_3 () Bool)
(declare-fun z_1_2 () Bool)
(declare-fun z_1_3 () Bool)
(declare-fun z_0_5 () Bool)
(declare-fun z_1_4 () Bool)
(declare-fun z_1_5 () Bool)
(declare-fun z_0_7 () Bool)
(declare-fun z_1_6 () Bool)
(declare-fun z_0_8 () Bool)
(declare-fun z_1_7 () Bool)
(declare-fun z_0_9 () Bool)
(declare-fun z_1_8 () Bool)
(declare-fun z_0_10 () Bool)
(declare-fun z_1_9 () Bool)
(declare-fun z_0_11 () Bool)
(declare-fun z_1_10 () Bool)
(declare-fun z_1_11 () Bool)
(declare-fun z_0_13 () Bool)
(declare-fun z_1_12 () Bool)
(declare-fun z_0_14 () Bool)
(declare-fun z_1_13 () Bool)
(declare-fun z_0_15 () Bool)
(declare-fun z_1_14 () Bool)
(declare-fun z_0_16 () Bool)
(declare-fun z_1_15 () Bool)
(declare-fun z_0_17 () Bool)
(declare-fun z_1_16 () Bool)
(declare-fun z_1_17 () Bool)
(declare-fun z_0_19 () Bool)
(declare-fun z_1_18 () Bool)
(declare-fun z_0_20 () Bool)
(declare-fun z_1_19 () Bool)
(declare-fun z_1_20 () Bool)
(declare-fun z_0_22 () Bool)
(declare-fun z_1_21 () Bool)
(declare-fun z_0_23 () Bool)
(declare-fun z_1_22 () Bool)
(declare-fun z_0_24 () Bool)
(declare-fun z_1_23 () Bool)
(declare-fun z_0_25 () Bool)
(declare-fun z_1_24 () Bool)
(declare-fun z_0_26 () Bool)
(declare-fun z_1_25 () Bool)
(declare-fun z_1_26 () Bool)
(declare-fun z_0_28 () Bool)
(declare-fun z_1_27 () Bool)
(declare-fun z_1_28 () Bool)
(declare-fun z_0_30 () Bool)
(declare-fun z_1_29 () Bool)
(declare-fun z_1_30 () Bool)
(declare-fun z_0_32 () Bool)
(declare-fun z_1_31 () Bool)
(declare-fun z_0_33 () Bool)
(declare-fun z_1_32 () Bool)
(declare-fun z_0_34 () Bool)
(declare-fun z_1_33 () Bool)
(declare-fun z_1_34 () Bool)
(declare-fun z_0_36 () Bool)
(declare-fun z_1_35 () Bool)
(declare-fun z_0_37 () Bool)
(declare-fun z_1_36 () Bool)
(declare-fun z_1_37 () Bool)
(declare-fun z_3_0 () Bool)
(declare-fun z_3_1 () Bool)
(declare-fun z_3_2 () Bool)
(declare-fun z_3_3 () Bool)
(declare-fun z_3_4 () Bool)
(declare-fun z_3_5 () Bool)
(declare-fun z_3_6 () Bool)
(declare-fun z_3_7 () Bool)
(declare-fun z_3_8 () Bool)
(declare-fun z_3_9 () Bool)
(declare-fun z_3_10 () Bool)
(declare-fun z_3_11 () Bool)
(declare-fun z_3_12 () Bool)
(declare-fun z_3_13 () Bool)
(declare-fun z_3_14 () Bool)
(declare-fun z_3_15 () Bool)
(declare-fun z_3_16 () Bool)
(declare-fun z_3_17 () Bool)
(declare-fun z_3_18 () Bool)
(declare-fun z_3_19 () Bool)
(declare-fun z_3_20 () Bool)
(declare-fun z_3_21 () Bool)
(declare-fun z_3_22 () Bool)
(declare-fun z_3_23 () Bool)
(declare-fun z_3_24 () Bool)
(declare-fun z_3_25 () Bool)
(declare-fun z_3_26 () Bool)
(declare-fun z_3_27 () Bool)
(declare-fun z_3_28 () Bool)
(declare-fun z_3_29 () Bool)
(declare-fun z_3_30 () Bool)
(declare-fun z_3_31 () Bool)
(declare-fun z_3_32 () Bool)
(declare-fun z_3_33 () Bool)
(declare-fun z_3_34 () Bool)
(declare-fun z_3_35 () Bool)
(declare-fun z_3_36 () Bool)
(declare-fun z_3_37 () Bool)
(declare-fun x_3_p () Bool)
(declare-fun x_3_-> () Bool)
(declare-fun x_3_U () Bool)
(declare-fun x_3_v () Bool)
(declare-fun x_3_& () Bool)
(declare-fun x_3_X () Bool)
(declare-fun x_3_! () Bool)
(declare-fun x_3_F () Bool)
(declare-fun x_3_G () Bool)
(assert
 z_0_0)
(assert
 (not z_0_1))
(assert
 (not z_0_4))
(assert
 (not z_0_6))
(assert
 (not z_0_12))
(assert
 (not z_0_18))
(assert
 (not z_0_21))
(assert
 (not z_0_27))
(assert
 (not z_0_29))
(assert
 (not z_0_31))
(assert
 (not z_0_35))
(assert
 (= z_0_0 (and z_1_0)))
(assert
 (= z_0_1 (and z_1_1 z_0_2)))
(assert
 (= z_0_2 (and z_1_2 z_0_3)))
(assert
 (= z_0_3 (and z_1_3 z_1_2)))
(assert
 (= z_0_4 (and z_1_4 z_0_5)))
(assert
 (= z_0_5 (and z_1_5 z_0_1)))
(assert
 (= z_0_6 (and z_1_6 z_0_7)))
(assert
 (= z_0_7 (and z_1_7 z_0_8)))
(assert
 (= z_0_8 (and z_1_8 z_0_9)))
(assert
 (= z_0_9 (and z_1_9 z_0_10)))
(assert
 (= z_0_10 (and z_1_10 z_0_11)))
(assert
 (= z_0_11 (and z_1_11 z_1_8 z_1_9 z_1_10)))
(assert
 (= z_0_12 (and z_1_12 z_0_13)))
(assert
 (= z_0_13 (and z_1_13 z_0_14)))
(assert
 (= z_0_14 (and z_1_14 z_0_15)))
(assert
 (= z_0_15 (and z_1_15 z_0_16)))
(assert
 (= z_0_16 (and z_1_16 z_0_17)))
(assert
 (= z_0_17 (and z_1_17 z_1_14 z_1_15 z_1_16)))
(assert
 (= z_0_18 (and z_1_18 z_0_19)))
(assert
 (= z_0_19 (and z_1_19 z_0_20)))
(assert
 (= z_0_20 (and z_1_20 z_0_0)))
(assert
 (= z_0_21 (and z_1_21 z_0_22)))
(assert
 (= z_0_22 (and z_1_22 z_0_23)))
(assert
 (= z_0_23 (and z_1_23 z_0_24)))
(assert
 (= z_0_24 (and z_1_24 z_0_25)))
(assert
 (= z_0_25 (and z_1_25 z_0_26)))
(assert
 (= z_0_26 (and z_1_26 z_1_24 z_1_25)))
(assert
 (= z_0_27 (and z_1_27 z_0_28)))
(assert
 (= z_0_28 (and z_1_28 z_0_19)))
(assert
 (= z_0_29 (and z_1_29 z_0_30)))
(assert
 (= z_0_30 (and z_1_30 z_0_23)))
(assert
 (= z_0_31 (and z_1_31 z_0_32)))
(assert
 (= z_0_32 (and z_1_32 z_0_33)))
(assert
 (= z_0_33 (and z_1_33 z_0_34)))
(assert
 (= z_0_34 (and z_1_34 z_0_15)))
(assert
 (= z_0_35 (and z_1_35 z_0_36)))
(assert
 (= z_0_36 (and z_1_36 z_0_37)))
(assert
 (= z_0_37 (and z_1_37 z_0_3)))
(assert
 (let (($x1196 (not z_3_0)))
 (= z_1_0 $x1196)))
(assert
 (= z_1_1 (not z_3_1)))
(assert
 (= z_1_2 (not z_3_2)))
(assert
 (let (($x1211 (not z_3_3)))
 (= z_1_3 $x1211)))
(assert
 (let (($x1216 (not z_3_4)))
 (= z_1_4 $x1216)))
(assert
 (= z_1_5 (not z_3_5)))
(assert
 (let (($x1226 (not z_3_6)))
 (= z_1_6 $x1226)))
(assert
 (let (($x1231 (not z_3_7)))
 (= z_1_7 $x1231)))
(assert
 (= z_1_8 (not z_3_8)))
(assert
 (let (($x1241 (not z_3_9)))
 (= z_1_9 $x1241)))
(assert
 (let (($x1246 (not z_3_10)))
 (= z_1_10 $x1246)))
(assert
 (= z_1_11 (not z_3_11)))
(assert
 (= z_1_12 (not z_3_12)))
(assert
 (let (($x1261 (not z_3_13)))
 (= z_1_13 $x1261)))
(assert
 (let (($x1266 (not z_3_14)))
 (= z_1_14 $x1266)))
(assert
 (let (($x1271 (not z_3_15)))
 (= z_1_15 $x1271)))
(assert
 (let (($x1276 (not z_3_16)))
 (= z_1_16 $x1276)))
(assert
 (= z_1_17 (not z_3_17)))
(assert
 (let (($x1286 (not z_3_18)))
 (= z_1_18 $x1286)))
(assert
 (let (($x1291 (not z_3_19)))
 (= z_1_19 $x1291)))
(assert
 (= z_1_20 (not z_3_20)))
(assert
 (= z_1_21 (not z_3_21)))
(assert
 (let (($x1306 (not z_3_22)))
 (= z_1_22 $x1306)))
(assert
 (let (($x1311 (not z_3_23)))
 (= z_1_23 $x1311)))
(assert
 (= z_1_24 (not z_3_24)))
(assert
 (let (($x1321 (not z_3_25)))
 (= z_1_25 $x1321)))
(assert
 (= z_1_26 (not z_3_26)))
(assert
 (= z_1_27 (not z_3_27)))
(assert
 (= z_1_28 (not z_3_28)))
(assert
 (let (($x1341 (not z_3_29)))
 (= z_1_29 $x1341)))
(assert
 (= z_1_30 (not z_3_30)))
(assert
 (let (($x1351 (not z_3_31)))
 (= z_1_31 $x1351)))
(assert
 (let (($x1356 (not z_3_32)))
 (= z_1_32 $x1356)))
(assert
 (let (($x1361 (not z_3_33)))
 (= z_1_33 $x1361)))
(assert
 (= z_1_34 (not z_3_34)))
(assert
 (= z_1_35 (not z_3_35)))
(assert
 (= z_1_36 (not z_3_36)))
(assert
 (let (($x1381 (not z_3_37)))
 (= z_1_37 $x1381)))
(assert
 (and true true))
(assert
 (let (($x1196 (not z_3_0)))
 (=> x_3_p $x1196)))
(assert
 (=> x_3_p z_3_1))
(assert
 (=> x_3_p z_3_2))
(assert
 (let (($x1211 (not z_3_3)))
 (=> x_3_p $x1211)))
(assert
 (let (($x1216 (not z_3_4)))
 (=> x_3_p $x1216)))
(assert
 (=> x_3_p z_3_5))
(assert
 (let (($x1226 (not z_3_6)))
 (=> x_3_p $x1226)))
(assert
 (let (($x1231 (not z_3_7)))
 (=> x_3_p $x1231)))
(assert
 (=> x_3_p z_3_8))
(assert
 (let (($x1241 (not z_3_9)))
 (=> x_3_p $x1241)))
(assert
 (let (($x1246 (not z_3_10)))
 (=> x_3_p $x1246)))
(assert
 (=> x_3_p z_3_11))
(assert
 (=> x_3_p z_3_12))
(assert
 (let (($x1261 (not z_3_13)))
 (=> x_3_p $x1261)))
(assert
 (let (($x1266 (not z_3_14)))
 (=> x_3_p $x1266)))
(assert
 (let (($x1271 (not z_3_15)))
 (=> x_3_p $x1271)))
(assert
 (let (($x1276 (not z_3_16)))
 (=> x_3_p $x1276)))
(assert
 (=> x_3_p z_3_17))
(assert
 (let (($x1286 (not z_3_18)))
 (=> x_3_p $x1286)))
(assert
 (let (($x1291 (not z_3_19)))
 (=> x_3_p $x1291)))
(assert
 (=> x_3_p z_3_20))
(assert
 (=> x_3_p z_3_21))
(assert
 (let (($x1306 (not z_3_22)))
 (=> x_3_p $x1306)))
(assert
 (let (($x1311 (not z_3_23)))
 (=> x_3_p $x1311)))
(assert
 (=> x_3_p z_3_24))
(assert
 (let (($x1321 (not z_3_25)))
 (=> x_3_p $x1321)))
(assert
 (=> x_3_p z_3_26))
(assert
 (=> x_3_p z_3_27))
(assert
 (=> x_3_p z_3_28))
(assert
 (let (($x1341 (not z_3_29)))
 (=> x_3_p $x1341)))
(assert
 (=> x_3_p z_3_30))
(assert
 (let (($x1351 (not z_3_31)))
 (=> x_3_p $x1351)))
(assert
 (let (($x1356 (not z_3_32)))
 (=> x_3_p $x1356)))
(assert
 (let (($x1361 (not z_3_33)))
 (=> x_3_p $x1361)))
(assert
 (=> x_3_p z_3_34))
(assert
 (=> x_3_p z_3_35))
(assert
 (=> x_3_p z_3_36))
(assert
 (let (($x1381 (not z_3_37)))
 (=> x_3_p $x1381)))
(assert
 (or x_3_p))
(assert
 (let (($x1403 (not x_3_->)))
 (let (($x1401 (not x_3_U)))
 (let (($x1399 (not x_3_v)))
 (let (($x1397 (not x_3_&)))
 (let (($x1395 (not x_3_X)))
 (let (($x1393 (not x_3_!)))
 (let (($x1391 (not x_3_F)))
 (let (($x1389 (not x_3_G)))
 (and $x1389 $x1391 $x1393 $x1395 $x1397 $x1399 $x1401 $x1403))))))))))
(check-sat)

